WARNING: for repeatability, setting FPU to use double precision
============================[ Problem Statistics ]=============================
|                                                                             |
|  Number of symmetries:           7                                          |
|  Number of invertingSyms:        0                                          |
|  Number of variables:            20                                         |
|  Number of clauses:              45                                         |
|  Parse time:                   0.00 s                                       |
|                                                                             |
============================[ Search Statistics ]==============================
| Conflicts |          ORIGINAL         |          LEARNT          | Progress |
|           |    Vars  Clauses Literals |    Limit  Clauses Lit/Cl |          |
===============================================================================
===============================================================================
restarts              : 1
conflicts             : 10             (inf /sec)
symconflicts          : 1              (inf /sec)
decisions             : 9              (0.00 % random) (inf /sec)
propagations          : 123            (inf /sec)
sympropagations       : 7              (inf /sec)
conflict literals     : 39             (0.00 % deleted)
Memory used           : 5.00 MB
CPU time              : 0 s

UNSATISFIABLE
